c --- [ banner ] -------------------------------------------------------------
c 
c CaDiCaL Radically Simplified CDCL SAT Solver
c Copyright (c) 2016-2021 A. Biere, M. Fleury, N. Froleyks
c 
c Version 1.5.2 9c38a080b32c28d805e8e6ca21849856b0cda605
c g++ (Ubuntu 7.5.0-3ubuntu1~18.04) 7.5.0 -Wall -Wextra -O3 -DNDEBUG
c Wed Feb 16 23:15:36 EST 2022 Linux fac-vanhoeve01 5.4.0-99-generic x86_64
c 
c --- [ parsing input ] ------------------------------------------------------
c 
c reading DIMACS file from '<stdin>' (use '-h' for a list of common options)
c found 'p cnf 2692 7976' header
c parsed 7976 clauses in 0.00 seconds process time
c disconnecting from '<stdin>'
c after reading 106558 bytes 0.1 MB
c 
c --- [ options ] ------------------------------------------------------------
c 
c all options are set to their default value
c 
c --- [ solving ] ------------------------------------------------------------
c 
c time measured in process time since initialization
c 
c  seconds  reductions  redundant irredundant
c         MB    restarts       trail    variables
c          level   conflicts       glue      remaining
c 
c *  0.01  5  0 0   0    0    0  0% 0 7974 2618 97%
c {  0.01  5  0 0   0    0    0  0% 0 7974 2618 97%
c -  0.02  5 120 1  24  300  285 78% 9 7902 2618 97%
c -  0.06  6 57 2  42  901  731 87% 9 7902 2618 97%
c }  0.06  6 54 2  49 1000  823 87% 9 7902 2618 97%
c [  0.06  6  0 2  49 1000  823  0% 0 7902 2618 97%
c O  0.06  6 13 2  49 1002  825 95% 7 7902 2618 97%
c -  0.11  6 18 3  49 1803 1137 91% 12 7902 2618 97%
c ]  0.18  6 20 3  50 3000 2125 91% 14 7902 2618 97%
c {  0.18  6 54 3  50 3000 2125 87% 9 7902 2618 97%
c -  0.19  6 54 4  50 3003 1506 87% 9 7902 2618 97%
c F  0.19  6 54 4  50 3004 1507 87% 9 7902 2618 97%
c s  0.20  6 48 4  70 3216 1704 87% 9 7902 2618 97%
c e  0.23  6 48 4  70 3216   52 87% 9 5684 885 33%
c s  0.23  6 48 4  70 3216   49 87% 9 5684 885 33%
c -  0.30  6 35 5 193 4503 1242 85% 9 5684 885 33%
c p  0.32  6 32 5 218 5001 1705 85% 9 5684 885 33%
c #  0.36  6 29 5 270 6008 2628 82% 9 5684 885 33%
c -  0.38  6 28 6 281 6306 2205 82% 9 5684 885 33%
c }  0.41  6 27 6 353 7001 2859 83% 10 5684 885 33%
c 
c  seconds  reductions  redundant   irredundant
c         MB    restarts       trail      variables
c          level   conflicts        glue      remaining
c 
c [  0.41  6 20 6 353 7001 2859 278% 14 5684 885 33%
c -  0.49  7 24 7 354 8407 2832 195% 14 5684 885 33%
c I  0.59  7 26 7 355 10011 4181 155% 16 5684 885 33%
c -  0.63  7 28 8 356 10807 3237 146% 17 5684 885 33%
c -  0.80  7 29 9 358 13509 3606 127% 19 5684 885 33%
c s  0.83  7 30 9 358 13949 3950 125% 19 5684 885 33%
c w  0.84  7 30 9 358 13949 3949 125% 19 5684 885 33%
c s  0.84  7 30 9 358 13949 3949 125% 19 5684 885 33%
c ^  0.84  7 30 9 358 13949 3949 125% 19 5684 885 33%
c ]  0.91  7 30 9 358 15002 4804 121% 20 5684 885 33%
c {  0.91  7 27 9 358 15002 4804 83% 10 5684 885 33%
c p  0.91  7 27 9 358 15002 4815 83% 10 5684 885 33%
c B  0.92  7 27 9 359 15012 4824 83% 10 5684 885 33%
c -  0.99  7 25 10 441 16509 4047 81% 10 5684 885 33%
c -  1.15  6 23 11 674 19810 4554 82% 10 5684 885 33%
c W  1.22  6 23 11 782 21014 5678 83% 10 5684 885 33%
c -  1.34  7 22 12 944 23410 5155 82% 10 5684 885 33%
c -  1.54  7 22 13 1189 27310 5719 82% 10 5684 885 33%
c F  1.57  7 21 13 1189 28016 6383 81% 10 5684 885 33%
c p  1.67  7 21 13 1218 30003 8215 82% 10 5684 885 33%
c 
c  seconds  reductions     redundant  irredundant
c         MB     restarts         trail     variables
c          level      conflicts       glue      remaining
c 
c s  1.69  7 21 13 1218 30048 8242 82% 10 5684 885 33%
c w  1.70  7 21 13 1218 30048 8241 82% 10 5684 885 33%
c s  1.72  7 21 13 1218 30048 8241 82% 10 5684 885 33%
c ^  1.72  7 21 13 1218 30048 8241 82% 10 5684 885 33%
c }  1.77  7 21 13 1237 31003 9023 82% 10 5684 885 33%
c [  1.77  7 30 13 1237 31003 9023 121% 20 5684 885 33%
c -  1.80  7 29 14 1237 31510 6341 119% 19 5684 885 33%
c -  2.08  7 27 15 1240 36011 6628 109% 18 5684 885 33%
c B  2.08  7 27 15 1240 36017 6634 109% 18 5684 885 33%
c -  2.38  7 28 16 1243 40811 6388 103% 18 5684 885 33%
c W  2.69  7 27 16 1244 45019 9745 100% 18 5684 885 33%
c -  2.77  7 27 17 1245 45911 6620 100% 18 5684 885 33%
c p  3.00  7 26 17 1245 50005 10285 97% 18 5684 885 33%
c -  3.09  7 26 18 1245 51312 7069 96% 18 5684 885 33%
c s  3.11  7 26 18 1245 51514 7226 96% 18 5684 885 33%
c w  3.12  7 26 18 1245 51514 7225 96% 18 5684 885 33%
c s  3.14  7 26 18 1245 51514 7224 96% 18 5684 885 33%
c ^  3.14  7 26 18 1245 51514 7224 96% 18 5684 885 33%
c O  3.34  7 26 18 1246 55020 10372 95% 18 5684 885 33%
c -  3.46  8 26 19 1248 57018 7432 95% 18 5684 885 33%
c 
c  seconds  reductions      redundant  irredundant
c         MB     restarts          trail     variables
c          level      conflicts        glue      remaining
c 
c ]  3.82  8 25 19 1252 63004 11301 94% 17 5684 885 33%
c {  3.82  8 21 19 1252 63004 11301 82% 10 5684 885 33%
c -  3.83  8 21 20 1256 63022 6868 82% 10 5684 885 33%
c B  3.99  8 21 20 1448 66021 9589 82% 10 5684 885 33%
c -  4.16  8 21 21 1659 69322 8466 82% 10 5684 885 33%
c p  4.49  8 20 21 1958 75007 13499 82% 10 5684 885 33%
c -  4.55  8 20 22 1995 75924 9744 82% 10 5684 885 33%
c W  4.69  8 20 22 2129 78024 11688 82% 10 5684 885 33%
c s  4.72  8 20 22 2159 78348 11950 82% 10 5684 885 33%
c w  4.74  8 20 22 2159 78348 11948 82% 10 5684 885 33%
c s  4.76  8 20 22 2159 78348 11946 82% 10 5684 885 33%
c ^  4.76  8 20 22 2159 78348 11946 82% 10 5684 885 33%
c -  5.03  8 20 23 2419 82824 10744 82% 10 5684 885 33%
c -  5.48  8 19 24 2904 90031 11106 82% 10 5684 885 33%
c #  5.54  8 19 24 3027 91025 12013 82% 10 5684 885 33%
c -  5.95  8 19 25 3465 97531 12019 82% 10 5684 885 33%
c p  6.43  8 19 25 3893 105010 18804 82% 10 5684 885 33%
c B  6.43  8 19 25 3893 105026 18819 82% 10 5684 885 33%
c -  6.47  8 19 26 3953 105331 12557 82% 10 5684 885 33%
c s  6.77  8 19 26 4191 110546 17094 82% 10 5684 885 33%
c 
c  seconds  reductions       redundant  irredundant
c         MB     restarts           trail     variables
c          level      conflicts         glue      remaining
c 
c w  6.80  8 19 26 4191 110546 17093 82% 10 5684 885 33%
c e  6.82  8 19 26 4191 110546 3336 82% 10 8120 567 21%
c s  6.83  8 19 26 4191 110546 3336 82% 10 8120 567 21%
c ^  6.83  8 19 26 4191 110546 3336 82% 10 8120 567 21%
c -  6.98  8 19 27 4389 113431 4780 81% 10 8120 567 21%
c W  7.37  8 19 27 4749 120027 10712 80% 10 8120 567 21%
c -  7.47 10 19 28 4839 121833 9785 80% 10 8120 567 21%
c }  7.75 10 19 28 5106 127006 14537 80% 10 8120 567 21%
c [  7.75 10 25 28 5106 127006 14537 146% 17 8120 567 21%
c -  7.95  9 25 29 5106 130533 12604 140% 17 8120 567 21%
c B  8.34  9 25 29 5111 136030 16996 132% 17 8120 567 21%
c -  8.57 10 26 30 5113 139533 13128 128% 17 8120 567 21%
c p  8.61 10 26 30 5113 140011 13594 128% 17 8120 567 21%
c -  9.26 10 26 31 5114 148836 11883 121% 18 8120 567 21%
c W  9.61 10 26 31 5115 153031 15009 118% 18 8120 567 21%
c - 10.05 10 25 32 5115 158438 11898 115% 18 8120 567 21%
c s 10.52 10 26 32 5115 164307 16545 112% 18 8120 567 21%
c w 10.55 10 26 32 5115 164307 16541 112% 18 8120 567 21%
c s 10.58 10 26 32 5115 164307 16538 112% 18 8120 567 21%
c - 10.98 11 25 33 5116 168338 12925 110% 18 8120 567 21%
c 
c  seconds  reductions       redundant   irredundant
c         MB     restarts           trail      variables
c          level      conflicts          glue      remaining
c 
c I 11.19 11 25 33 5118 171034 15214 109% 18 8120 567 21%
c - 11.74 13 26 34 5122 178538 14268 107% 18 8120 567 21%
c p 11.87 13 25 34 5122 180012 15579 106% 18 8120 567 21%
c - 12.59 12 25 35 5129 189040 14863 104% 18 8120 567 21%
c B 12.66 12 25 35 5129 190037 15711 104% 18 8120 567 21%
c - 13.40 14 29 36 5130 199840 15299 101% 19 8120 567 21%
c W 14.36 14 32 36 5137 210039 24551 99% 21 8120 567 21%
c - 14.45 14 32 37 5137 210942 16170 98% 21 8120 567 21%
c - 15.35 12 32 38 5144 222342 15332 97% 21 8120 567 21%
c p 15.57 12 32 38 5144 225012 17668 97% 21 8120 567 21%
c O 16.03 12 32 38 5145 231040 22190 96% 22 8120 567 21%
c - 16.22 13 32 39 5145 234042 14846 96% 21 8120 567 21%
c - 17.04 13 30 40 5146 246042 14163 94% 21 8120 567 21%
c B 17.51 13 29 40 5147 253043 18977 93% 20 8120 567 21%
c ] 17.62 13 30 40 5147 255006 20799 93% 20 8120 567 21%
c { 17.62 13 19 40 5147 255006 20799 80% 10 8120 567 21%
c - 17.88 13 19 41 5271 258342 15881 80% 10 8120 567 21%
c - 18.76 14 19 42 6010 270942 17784 79% 10 8120 567 21%
c p 19.02 14 19 42 6159 275014 21528 80% 10 8120 565 21%
c s 19.11 14 19 42 6159 275014 21346 80% 10 8120 565 21%
c 
c  seconds  reductions       redundant  irredundant
c         MB     restarts           trail     variables
c          level      conflicts         glue      remaining
c 
c v 19.14 14 19 42 6159 275014 21346 80% 10 8110 565 21%
c w 19.17 14 19 42 6159 275014 21330 80% 10 8110 565 21%
c s 19.26 14 19 42 6159 275014 21313 80% 10 8100 565 21%
c F 19.33 14 19 42 6165 276044 22081 80% 10 8100 565 21%
c - 19.95 14 18 43 6744 283842 20578 80% 10 8100 565 21%
c - 20.96 14 18 44 7609 297043 21744 79% 10 8100 565 21%
c B 21.21 14 18 44 7876 300045 24549 79% 10 8100 565 21%
c - 22.15 16 18 45 8748 310543 22766 79% 10 8100 565 21%
c - 23.46 16 19 46 10150 324343 23730 80% 10 8100 565 21%
c W 23.61 16 19 46 10202 325047 24364 80% 10 8100 565 21%
c p 24.03 16 19 46 10498 330015 28931 80% 10 8100 564 21%
c - 24.86 16 19 47 11204 338443 24459 81% 10 8095 564 21%
c s 25.42 16 19 47 11754 344164 29659 81% 10 8078 564 21%
c w 25.48 16 19 47 11754 344164 29654 81% 10 8078 564 21%
c s 25.54 16 19 47 11754 344164 29653 81% 10 8078 564 21%
c # 26.18 16 19 47 12209 351048 35652 81% 10 8078 564 21%
c - 26.39 16 19 48 12354 352843 25243 81% 10 8078 564 21%
c - 27.73 16 18 49 13373 367544 25965 81% 10 8078 564 21%
c B 28.66 16 18 49 14156 378052 35391 81% 10 8078 564 21%
c - 29.16 16 18 50 14521 382544 26852 80% 10 8078 564 21%
c 
c  seconds  reductions        redundant  irredundant
c         MB      restarts           trail     variables
c          level       conflicts         glue      remaining
c 
c p 29.82 16 18 50 15043 390016 33609 81% 10 8078 564 21%
c - 30.65 17 18 51 15708 397844 27814 81% 10 8078 564 21%
c W 31.50 17 18 51 16317 406053 35030 80% 10 8078 564 21%
c - 32.25 19 18 52 16736 413449 28104 81% 10 8078 564 21%
c - 33.92 19 18 53 18186 429351 29680 81% 10 8078 564 21%
c F 34.46 19 18 53 18652 435054 34891 81% 10 8078 564 21%
c - 35.60 19 18 54 19345 445555 30434 81% 10 8078 564 21%
c p 36.52 19 18 54 19912 455016 39131 81% 10 8078 563 21%
c s 36.61 19 18 54 19912 455016 39069 81% 10 8078 563 21%
c v 36.66 19 18 54 19912 455016 39069 81% 10 8067 563 21%
c w 36.71 19 18 54 19912 455016 39064 81% 10 8067 563 21%
c s 36.81 19 18 54 19912 455016 39059 81% 10 8062 563 21%
c - 37.74 14 18 55 20581 462056 31233 82% 10 8062 563 21%
c B 37.99 14 18 55 20743 465056 33822 81% 10 8062 563 21%
c - 39.53 16 18 56 21963 478860 31706 82% 10 8062 563 21%
c - 41.37 16 18 57 23352 495960 32459 82% 10 8062 563 21%
c W 41.52 16 18 57 23365 496058 32540 82% 10 8062 563 21%
c } 43.05 16 18 57 24470 511006 45806 82% 10 8062 563 21%
c [ 43.05 16 30 57 24470 511006 45806 93% 20 8062 563 21%
c - 43.25 17 29 58 24470 513360 32737 93% 20 8062 563 21%
c 
c  seconds  reductions        redundant  irredundant
c         MB      restarts           trail     variables
c          level       conflicts         glue      remaining
c 
c p 44.22 17 28 58 24470 525017 42367 92% 19 8062 563 21%
c W 44.67 17 29 58 24470 528059 45159 92% 20 8062 563 21%
c - 44.97 14 29 59 24470 531061 31973 92% 20 8062 563 21%
c s 45.84 14 29 59 24470 539496 38678 91% 20 8062 563 21%
c w 45.92 14 29 59 24470 539496 38675 91% 20 8062 563 21%
c s 46.01 14 29 59 24470 539496 38670 91% 20 8062 563 21%
c - 47.10 14 29 60 24477 549061 28838 91% 21 8062 563 21%
c I 48.40 14 29 60 24484 561060 38367 90% 21 8062 563 21%
c - 48.97 15 30 61 24485 567363 29829 90% 21 8062 563 21%
c - 50.88 15 30 62 24493 585964 30968 90% 21 8062 563 21%
c B 51.90 15 30 62 24499 595061 39080 90% 21 8062 563 21%
c p 52.41 15 30 62 24500 600017 43778 89% 21 8062 563 21%
c - 52.86 15 31 63 24500 604864 31537 89% 21 8062 563 21%
c - 54.81 15 31 64 24502 624064 31089 89% 22 8062 563 21%
c W 55.55 15 32 64 24507 630062 36462 88% 22 8062 563 21%
c - 56.84 19 32 65 24514 643566 32010 88% 22 8062 563 21%
c - 59.04 19 31 66 24522 663369 31206 88% 22 8062 563 21%
c O 59.28 19 31 66 24523 666064 33290 88% 22 8062 563 21%
c p 60.49 19 30 66 24530 680018 43956 88% 22 8062 563 21%
c - 60.84 19 30 67 24531 683471 30055 88% 21 8062 563 21%
c 
c  seconds  reductions        redundant  irredundant
c         MB      restarts           trail     variables
c          level       conflicts         glue      remaining
c 
c B 62.74 19 29 67 24532 703066 43488 88% 21 8062 563 21%
c - 62.84 19 29 68 24532 703872 29675 88% 21 8062 563 21%
c - 64.90 19 30 69 24533 724573 32830 88% 21 8062 563 21%
c W 67.07 19 30 69 24534 741071 47615 88% 22 8062 563 21%
c - 67.72 23 30 70 24534 745573 35061 88% 22 8062 563 21%
c p 69.86 23 29 70 24534 765020 51477 88% 21 8062 563 21%
c - 70.17 19 29 71 24534 766873 33647 88% 21 8062 563 21%
c I 71.57 19 29 71 24534 780073 43732 87% 21 8062 563 21%
c - 72.43 22 30 72 24534 788473 34583 88% 21 8062 563 21%
c - 75.22 19 31 73 24538 810373 37244 88% 21 8062 563 21%
c B 76.48 19 31 73 24543 820075 46334 88% 21 8062 563 21%
c ] 77.32 19 31 73 24548 828453 52698 88% 21 8062 563 21%
c 1 77.32 19 31 73 24548 828453 52698 88% 21 8062 563 21%
c 
c --- [ result ] -------------------------------------------------------------
c 
s SATISFIABLE
v -1 -2 -3 -4 -5 -6 -7 8 -9 10 -11 -12 -13 -14 -15 -16 -17 -18 -19 -20 -21 -22
v -23 24 -25 26 -27 28 -29 -30 31 -32 -33 -34 -35 -36 37 38 -39 -40 -41 -42
v -43 -44 -45 -46 47 -48 -49 -50 -51 -52 -53 54 55 56 -57 -58 59 -60 -61 62 63
v -64 -65 -66 -67 -68 -69 -70 -71 -72 -73 -74 -75 -76 -77 -78 -79 -80 -81 82
v -83 -84 85 86 -87 -88 -89 -90 -91 -92 93 -94 -95 -96 -97 -98 -99 -100 -101
v -102 -103 -104 -105 -106 -107 -108 109 -110 -111 -112 113 -114 -115 -116
v -117 -118 119 -120 121 -122 -123 -124 -125 126 -127 -128 129 -130 -131 -132
v -133 -134 -135 -136 -137 -138 -139 140 -141 -142 -143 -144 -145 -146 -147
v 148 -149 -150 -151 -152 -153 -154 -155 156 -157 -158 -159 -160 -161 162 -163
v -164 -165 -166 -167 -168 -169 -170 -171 -172 173 174 -175 -176 -177 -178
v -179 180 -181 182 183 -184 -185 -186 -187 -188 -189 -190 -191 -192 193 -194
v 195 -196 -197 -198 -199 -200 -201 -202 -203 -204 -205 -206 -207 -208 -209
v -210 211 -212 -213 214 -215 216 -217 -218 -219 -220 -221 -222 223 -224 -225
v -226 -227 -228 -229 -230 231 232 -233 -234 -235 -236 -237 -238 -239 -240
v -241 -242 -243 -244 -245 246 -247 -248 -249 -250 -251 252 253 254 255 -256
v 257 258 -259 -260 -261 262 -263 -264 -265 -266 -267 268 269 -270 -271 272
v -273 -274 -275 -276 -277 278 -279 280 -281 282 283 -284 -285 286 -287 -288
v 289 290 -291 -292 -293 -294 295 -296 297 -298 299 -300 -301 -302 -303 -304
v 305 306 307 308 -309 -310 -311 312 -313 -314 -315 316 317 318 319 -320 -321
v 322 323 -324 -325 326 327 328 329 330 331 332 333 334 335 336 337 338 339
v 340 341 342 343 344 345 346 347 348 349 350 351 352 353 354 355 356 357 358
v 359 360 361 362 363 364 365 366 367 368 369 370 371 372 373 374 375 376 377
v 378 379 380 381 382 383 384 385 386 387 388 389 390 391 392 393 394 395 396
v 397 398 -399 -400 401 402 403 404 405 406 407 408 409 410 411 412 413 414
v 415 416 417 418 419 420 421 422 423 424 425 426 427 428 429 430 431 432 433
v 434 435 436 437 438 439 440 441 442 443 444 445 446 447 448 449 450 451 452
v 453 454 455 456 457 458 459 460 461 462 463 464 465 466 467 468 469 470 471
v 472 -473 -474 -475 476 477 478 479 480 481 482 483 484 485 486 487 488 489
v 490 491 492 493 494 495 496 497 498 499 500 501 502 503 504 505 506 507 508
v 509 510 511 512 513 514 515 516 517 518 519 520 521 522 523 524 525 526 527
v 528 529 530 531 532 533 534 535 536 537 538 539 540 541 542 543 544 545 546
v -547 -548 -549 -550 551 552 553 554 555 556 557 558 559 560 561 562 563 564
v 565 566 567 568 569 570 571 572 573 574 575 576 577 578 579 580 581 582 583
v 584 585 586 587 588 589 590 591 592 593 594 595 596 597 598 599 600 601 602
v 603 604 605 606 607 608 609 610 611 612 613 614 615 616 617 618 619 620 -621
v -622 -623 -624 -625 -626 627 628 629 630 631 632 633 634 635 636 637 638 639
v 640 641 642 643 644 645 646 647 648 649 650 651 652 653 654 655 656 657 658
v 659 660 661 662 663 664 665 666 667 668 669 670 671 672 673 674 675 676 677
v 678 679 680 681 682 683 684 685 686 687 688 689 690 691 692 693 694 -695
v -696 -697 -698 -699 -700 -701 702 703 704 705 706 707 708 709 710 711 712
v 713 714 715 716 717 718 719 720 721 722 723 724 725 726 727 728 729 730 731
v 732 733 734 735 736 737 738 739 740 741 742 743 744 745 746 747 748 749 750
v 751 752 753 754 755 756 757 758 759 760 761 762 763 764 765 766 767 768 -769
v -770 -771 -772 -773 -774 -775 -776 -777 -778 -779 780 781 782 783 784 785
v 786 787 788 789 790 791 792 793 794 795 796 797 798 799 800 801 802 803 804
v 805 806 807 808 809 810 811 812 813 814 815 816 817 818 819 820 821 822 823
v 824 825 826 827 828 829 830 831 832 833 834 835 836 837 838 839 840 841 842
v -843 -844 -845 -846 -847 -848 -849 -850 -851 -852 -853 -854 -855 -856 -857
v -858 -859 860 861 862 863 864 865 866 867 868 869 870 871 872 873 874 875
v 876 877 878 879 880 881 882 883 884 885 886 887 888 889 890 891 892 893 894
v 895 896 897 898 899 900 901 902 903 904 905 906 907 908 909 910 911 912 913
v 914 915 916 -917 -918 -919 -920 -921 -922 -923 -924 -925 -926 -927 -928 -929
v -930 -931 -932 -933 -934 935 936 937 938 939 940 941 942 943 944 945 946 947
v 948 949 950 951 952 953 954 955 956 957 958 959 960 961 962 963 964 965 966
v 967 968 969 970 971 972 973 974 975 976 977 978 979 980 981 982 983 984 985
v 986 987 988 989 990 -991 -992 -993 -994 -995 -996 -997 -998 -999 -1000 -1001
v -1002 -1003 -1004 -1005 -1006 -1007 -1008 -1009 -1010 -1011 1012 1013 1014
v 1015 1016 1017 1018 1019 1020 1021 1022 1023 1024 1025 1026 1027 1028 1029
v 1030 1031 1032 1033 1034 1035 1036 1037 1038 1039 1040 1041 1042 1043 1044
v 1045 1046 1047 1048 1049 1050 1051 1052 1053 1054 1055 1056 1057 1058 1059
v 1060 1061 1062 1063 1064 -1065 -1066 -1067 -1068 -1069 -1070 -1071 -1072
v -1073 -1074 -1075 -1076 -1077 -1078 -1079 -1080 -1081 -1082 -1083 -1084
v -1085 -1086 -1087 -1088 -1089 -1090 -1091 1092 1093 1094 1095 1096 1097 1098
v 1099 1100 1101 1102 1103 1104 1105 1106 1107 1108 1109 1110 1111 1112 1113
v 1114 1115 1116 1117 1118 1119 1120 1121 1122 1123 1124 1125 1126 1127 1128
v 1129 1130 1131 1132 1133 1134 1135 1136 1137 1138 -1139 -1140 -1141 -1142
v -1143 -1144 -1145 -1146 -1147 -1148 -1149 -1150 -1151 -1152 -1153 -1154
v -1155 -1156 -1157 -1158 -1159 -1160 -1161 -1162 -1163 -1164 -1165 -1166
v -1167 1168 1169 1170 1171 1172 1173 1174 1175 1176 1177 1178 1179 1180 1181
v 1182 1183 1184 1185 1186 1187 1188 1189 1190 1191 1192 1193 1194 1195 1196
v 1197 1198 1199 1200 1201 1202 1203 1204 1205 1206 1207 1208 1209 1210 1211
v 1212 -1213 -1214 -1215 -1216 -1217 -1218 -1219 -1220 -1221 -1222 -1223 -1224
v -1225 -1226 -1227 -1228 -1229 -1230 -1231 -1232 -1233 -1234 -1235 -1236
v -1237 -1238 -1239 -1240 -1241 -1242 -1243 1244 1245 1246 1247 1248 1249 1250
v 1251 1252 1253 1254 1255 1256 1257 1258 1259 1260 1261 1262 1263 1264 1265
v 1266 1267 1268 1269 1270 1271 1272 1273 1274 1275 1276 1277 1278 1279 1280
v 1281 1282 1283 1284 1285 1286 -1287 -1288 -1289 -1290 -1291 -1292 -1293
v -1294 -1295 -1296 -1297 -1298 -1299 -1300 -1301 -1302 -1303 -1304 -1305
v -1306 -1307 -1308 -1309 -1310 -1311 -1312 -1313 -1314 -1315 -1316 -1317
v -1318 1319 1320 1321 1322 1323 1324 1325 1326 1327 1328 1329 1330 1331 1332
v 1333 1334 1335 1336 1337 1338 1339 1340 1341 1342 1343 1344 1345 1346 1347
v 1348 1349 1350 1351 1352 1353 1354 1355 1356 1357 1358 1359 1360 -1361 -1362
v -1363 -1364 -1365 -1366 -1367 -1368 -1369 -1370 -1371 -1372 -1373 -1374
v -1375 -1376 -1377 -1378 -1379 -1380 -1381 -1382 -1383 -1384 -1385 -1386
v -1387 -1388 -1389 -1390 -1391 -1392 -1393 -1394 -1395 1396 1397 1398 1399
v 1400 1401 1402 1403 1404 1405 1406 1407 1408 1409 1410 1411 1412 1413 1414
v 1415 1416 1417 1418 1419 1420 1421 1422 1423 1424 1425 1426 1427 1428 1429
v 1430 1431 1432 1433 1434 -1435 -1436 -1437 -1438 -1439 -1440 -1441 -1442
v -1443 -1444 -1445 -1446 -1447 -1448 -1449 -1450 -1451 -1452 -1453 -1454
v -1455 -1456 -1457 -1458 -1459 -1460 -1461 -1462 -1463 -1464 -1465 -1466
v -1467 -1468 -1469 -1470 -1471 -1472 1473 1474 1475 1476 1477 1478 1479 1480
v 1481 1482 1483 1484 1485 1486 1487 1488 1489 1490 1491 1492 1493 1494 1495
v 1496 1497 1498 1499 1500 1501 1502 1503 1504 1505 1506 1507 1508 -1509 -1510
v -1511 -1512 -1513 -1514 -1515 -1516 -1517 -1518 -1519 -1520 -1521 -1522
v -1523 -1524 -1525 -1526 -1527 -1528 -1529 -1530 -1531 -1532 -1533 -1534
v -1535 -1536 -1537 -1538 -1539 -1540 -1541 -1542 -1543 -1544 -1545 -1546
v -1547 1548 1549 1550 1551 1552 1553 1554 1555 1556 1557 1558 1559 1560 1561
v 1562 1563 1564 1565 1566 1567 1568 1569 1570 1571 1572 1573 1574 1575 1576
v 1577 1578 1579 1580 1581 1582 -1583 -1584 -1585 -1586 -1587 -1588 -1589
v -1590 -1591 -1592 -1593 -1594 -1595 -1596 -1597 -1598 -1599 -1600 -1601
v -1602 -1603 -1604 -1605 -1606 -1607 -1608 -1609 -1610 -1611 -1612 -1613
v -1614 -1615 -1616 -1617 -1618 -1619 -1620 -1621 -1622 -1623 -1624 -1625
v -1626 1627 1628 1629 1630 1631 1632 1633 1634 1635 1636 1637 1638 1639 1640
v 1641 1642 1643 1644 1645 1646 1647 1648 1649 1650 1651 1652 1653 1654 1655
v 1656 -1657 -1658 -1659 -1660 -1661 -1662 -1663 -1664 -1665 -1666 -1667 -1668
v -1669 -1670 -1671 -1672 -1673 -1674 -1675 -1676 -1677 -1678 -1679 -1680
v -1681 -1682 -1683 -1684 -1685 -1686 -1687 -1688 -1689 -1690 -1691 -1692
v -1693 -1694 -1695 -1696 -1697 -1698 -1699 -1700 -1701 -1702 1703 1704 1705
v 1706 1707 1708 1709 1710 1711 1712 1713 1714 1715 1716 1717 1718 1719 1720
v 1721 1722 1723 1724 1725 1726 1727 1728 1729 1730 -1731 -1732 -1733 -1734
v -1735 -1736 -1737 -1738 -1739 -1740 -1741 -1742 -1743 -1744 -1745 -1746
v -1747 -1748 -1749 -1750 -1751 -1752 -1753 -1754 -1755 -1756 -1757 -1758
v -1759 -1760 -1761 -1762 -1763 -1764 -1765 -1766 -1767 -1768 -1769 -1770
v -1771 -1772 -1773 -1774 -1775 -1776 -1777 -1778 1779 1780 1781 1782 1783
v 1784 1785 1786 1787 1788 1789 1790 1791 1792 1793 1794 1795 1796 1797 1798
v 1799 1800 1801 1802 1803 1804 -1805 -1806 -1807 -1808 -1809 -1810 -1811
v -1812 -1813 -1814 -1815 -1816 -1817 -1818 -1819 -1820 -1821 -1822 -1823
v -1824 -1825 -1826 -1827 -1828 -1829 -1830 -1831 -1832 -1833 -1834 -1835
v -1836 -1837 -1838 -1839 -1840 -1841 -1842 -1843 -1844 -1845 -1846 -1847
v -1848 -1849 -1850 -1851 -1852 -1853 -1854 -1855 -1856 -1857 -1858 1859 1860
v 1861 1862 1863 1864 1865 1866 1867 1868 1869 1870 1871 1872 1873 1874 1875
v 1876 1877 1878 -1879 -1880 -1881 -1882 -1883 -1884 -1885 -1886 -1887 -1888
v -1889 -1890 -1891 -1892 -1893 -1894 -1895 -1896 -1897 -1898 -1899 -1900
v -1901 -1902 -1903 -1904 -1905 -1906 -1907 -1908 -1909 -1910 -1911 -1912
v -1913 -1914 -1915 -1916 -1917 -1918 -1919 -1920 -1921 -1922 -1923 -1924
v -1925 -1926 -1927 -1928 -1929 -1930 -1931 -1932 -1933 1934 1935 1936 1937
v 1938 1939 1940 1941 1942 1943 1944 1945 1946 1947 1948 1949 1950 1951 1952
v -1953 -1954 -1955 -1956 -1957 -1958 -1959 -1960 -1961 -1962 -1963 -1964
v -1965 -1966 -1967 -1968 -1969 -1970 -1971 -1972 -1973 -1974 -1975 -1976
v -1977 -1978 -1979 -1980 -1981 -1982 -1983 -1984 -1985 -1986 -1987 -1988
v -1989 -1990 -1991 -1992 -1993 -1994 -1995 -1996 -1997 -1998 -1999 -2000
v -2001 -2002 -2003 -2004 -2005 -2006 -2007 -2008 2009 2010 2011 2012 2013
v 2014 2015 2016 2017 2018 2019 2020 2021 2022 2023 2024 2025 2026 -2027 -2028
v -2029 -2030 -2031 -2032 -2033 -2034 -2035 -2036 -2037 -2038 -2039 -2040
v -2041 -2042 -2043 -2044 -2045 -2046 -2047 -2048 -2049 -2050 -2051 -2052
v -2053 -2054 -2055 -2056 -2057 -2058 -2059 -2060 -2061 -2062 -2063 -2064
v -2065 -2066 -2067 -2068 -2069 -2070 -2071 -2072 -2073 -2074 -2075 -2076
v -2077 -2078 -2079 -2080 -2081 -2082 -2083 2084 2085 2086 2087 2088 2089 2090
v 2091 2092 2093 2094 2095 2096 2097 2098 2099 2100 -2101 -2102 -2103 -2104
v -2105 -2106 -2107 -2108 -2109 -2110 -2111 -2112 -2113 -2114 -2115 -2116
v -2117 -2118 -2119 -2120 -2121 -2122 -2123 -2124 -2125 -2126 -2127 -2128
v -2129 -2130 -2131 -2132 -2133 -2134 -2135 -2136 -2137 -2138 -2139 -2140
v -2141 -2142 -2143 -2144 -2145 -2146 -2147 -2148 -2149 -2150 -2151 -2152
v -2153 -2154 -2155 -2156 -2157 -2158 -2159 -2160 -2161 2162 2163 2164 2165
v 2166 2167 2168 2169 2170 2171 2172 2173 2174 -2175 -2176 -2177 -2178 -2179
v -2180 -2181 -2182 -2183 -2184 -2185 -2186 -2187 -2188 -2189 -2190 -2191
v -2192 -2193 -2194 -2195 -2196 -2197 -2198 -2199 -2200 -2201 -2202 -2203
v -2204 -2205 -2206 -2207 -2208 -2209 -2210 -2211 -2212 -2213 -2214 -2215
v -2216 -2217 -2218 -2219 -2220 -2221 -2222 -2223 -2224 -2225 -2226 -2227
v -2228 -2229 -2230 -2231 -2232 -2233 -2234 -2235 -2236 -2237 -2238 -2239 2240
v 2241 2242 2243 2244 2245 2246 2247 2248 -2249 -2250 -2251 -2252 -2253 -2254
v -2255 -2256 -2257 -2258 -2259 -2260 -2261 -2262 -2263 -2264 -2265 -2266
v -2267 -2268 -2269 -2270 -2271 -2272 -2273 -2274 -2275 -2276 -2277 -2278
v -2279 -2280 -2281 -2282 -2283 -2284 -2285 -2286 -2287 -2288 -2289 -2290
v -2291 -2292 -2293 -2294 -2295 -2296 -2297 -2298 -2299 -2300 -2301 -2302
v -2303 -2304 -2305 -2306 -2307 -2308 -2309 -2310 -2311 -2312 -2313 -2314 2315
v 2316 2317 2318 2319 2320 2321 2322 -2323 -2324 -2325 -2326 -2327 -2328 -2329
v -2330 -2331 -2332 -2333 -2334 -2335 -2336 -2337 -2338 -2339 -2340 -2341
v -2342 -2343 -2344 -2345 -2346 -2347 -2348 -2349 -2350 -2351 -2352 -2353
v -2354 -2355 -2356 -2357 -2358 -2359 -2360 -2361 -2362 -2363 -2364 -2365
v -2366 -2367 -2368 -2369 -2370 -2371 -2372 -2373 -2374 -2375 -2376 -2377
v -2378 -2379 -2380 -2381 -2382 -2383 -2384 -2385 -2386 -2387 -2388 -2389 2390
v 2391 2392 2393 2394 2395 2396 -2397 -2398 -2399 -2400 -2401 -2402 -2403
v -2404 -2405 -2406 -2407 -2408 -2409 -2410 -2411 -2412 -2413 -2414 -2415
v -2416 -2417 -2418 -2419 -2420 -2421 -2422 -2423 -2424 -2425 -2426 -2427
v -2428 -2429 -2430 -2431 -2432 -2433 -2434 -2435 -2436 -2437 -2438 -2439
v -2440 -2441 -2442 -2443 -2444 -2445 -2446 -2447 -2448 -2449 -2450 -2451
v -2452 -2453 -2454 -2455 -2456 -2457 -2458 -2459 -2460 -2461 -2462 -2463
v -2464 2465 2466 2467 2468 2469 2470 -2471 -2472 -2473 -2474 -2475 -2476
v -2477 -2478 -2479 -2480 -2481 -2482 -2483 -2484 -2485 -2486 -2487 -2488
v -2489 -2490 -2491 -2492 -2493 -2494 -2495 -2496 -2497 -2498 -2499 -2500
v -2501 -2502 -2503 -2504 -2505 -2506 -2507 -2508 -2509 -2510 -2511 -2512
v -2513 -2514 -2515 -2516 -2517 -2518 -2519 -2520 -2521 -2522 -2523 -2524
v -2525 -2526 -2527 -2528 -2529 -2530 -2531 -2532 -2533 -2534 -2535 -2536
v -2537 -2538 -2539 -2540 -2541 2542 2543 2544 -2545 -2546 -2547 -2548 -2549
v -2550 -2551 -2552 -2553 -2554 -2555 -2556 -2557 -2558 -2559 -2560 -2561
v -2562 -2563 -2564 -2565 -2566 -2567 -2568 -2569 -2570 -2571 -2572 -2573
v -2574 -2575 -2576 -2577 -2578 -2579 -2580 -2581 -2582 -2583 -2584 -2585
v -2586 -2587 -2588 -2589 -2590 -2591 -2592 -2593 -2594 -2595 -2596 -2597
v -2598 -2599 -2600 -2601 -2602 -2603 -2604 -2605 -2606 -2607 -2608 -2609
v -2610 -2611 -2612 -2613 -2614 -2615 -2616 2617 2618 -2619 -2620 -2621 -2622
v -2623 -2624 -2625 -2626 -2627 -2628 -2629 -2630 -2631 -2632 -2633 -2634
v -2635 -2636 -2637 -2638 -2639 -2640 -2641 -2642 -2643 -2644 -2645 -2646
v -2647 -2648 -2649 -2650 -2651 -2652 -2653 -2654 -2655 -2656 -2657 -2658
v -2659 -2660 -2661 -2662 -2663 -2664 -2665 -2666 -2667 -2668 -2669 -2670
v -2671 -2672 -2673 -2674 -2675 -2676 -2677 -2678 -2679 -2680 -2681 -2682
v -2683 -2684 -2685 -2686 -2687 -2688 -2689 -2690 -2691 -2692 0
c 
c --- [ run-time profiling ] -------------------------------------------------
c 
c process time taken by individual solving procedures
c (percentage relative to process time for solving)
c 
c        75.60   97.78% search
c        45.41   58.74% stable
c        28.97   37.47% unstable
c         1.72    2.22% simplify
c         1.21    1.56% walk
c         0.75    0.97% subsume
c         0.38    0.49% vivify
c         0.23    0.30% probe
c         0.09    0.11% ternary
c         0.09    0.11% elim
c         0.00    0.01% parse
c         0.00    0.00% lucky
c   =================================
c        77.31   99.99% solve
c 
c last line shows process time for solving
c (percentage relative to total process time)
c 
c --- [ statistics ] ---------------------------------------------------------
c 
c chronological:            159978        19.31 %  of conflicts
c conflicts:                828453     10715.73    per second
c decisions:               1382221     17878.52    per second
c eliminated:                 2051        76.19 %  of all variables
c fixed:                        78         2.90 %  of all variables
c learned:                  813700        98.22 %  per conflict
c learned_lits:           34036117       100.00 %  learned literals
c minimized:                     0         0.00 %  learned literals
c shrunken:                9280892        27.27 %  learned literals
c minishrunken:            3689481        10.84 %  learned literals
c propagations:           67127580         0.87 M  per second
c reduced:                  646932        78.09 %  per conflict
c rephased:                     40     20711.33    interval
c restarts:                  24548        33.75    interval
c stabilizing:                   5        58.84 %  of conflicts
c subsumed:                  98660         5.93 %  of all clauses
c strengthened:               8365         0.50 %  of all clauses
c ternary:                      28         0.07 %  of resolved
c vivified:                     83         0.00 %  of all clauses
c walked:                       12     69037.75    interval
c weakened:                   8782         2.89    average size
c 
c seconds are measured in process time for solving
c 
c --- [ resources ] ----------------------------------------------------------
c 
c total process time since initialization:        77.32    seconds
c total real time since initialization:           77.35    seconds
c maximum resident set size of process:           26.62    MB
c 
c --- [ shutting down ] ------------------------------------------------------
c 
c exit 10
